(set-logic QF_LRA)
(declare-fun X0 () Real )
(declare-fun Y0 () Real )
(declare-fun X1 () Real )
(declare-fun Y1 () Real )
(declare-fun X2 () Real )
(declare-fun Y2 () Real )
(declare-fun X3 () Real )
(declare-fun Y3 () Real )
(declare-fun X4 () Real )
(declare-fun Y4 () Real )
(declare-fun X5 () Real )
(declare-fun Y5 () Real )
(declare-fun Z () Real )
(declare-fun k () Real )
(assert (let
(( $goal (>= Z k) ))
(let
((
$phi ( and 
( or ( <= ( + X0 69 ) X1 )  ( <= ( + X1 19 ) X0 )  ( <= ( + Y0 80 ) Y1 )  ( <= ( + Y1 29 ) Y0 )  )
( or ( <= ( + X0 69 ) X2 )  ( <= ( + X2 93 ) X0 )  ( <= ( + Y0 80 ) Y2 )  ( <= ( + Y2 6 ) Y0 )  )
( or ( <= ( + X0 69 ) X3 )  ( <= ( + X3 35 ) X0 )  ( <= ( + Y0 80 ) Y3 )  ( <= ( + Y3 27 ) Y0 )  )
( or ( <= ( + X0 69 ) X4 )  ( <= ( + X4 71 ) X0 )  ( <= ( + Y0 80 ) Y4 )  ( <= ( + Y4 7 ) Y0 )  )
( or ( <= ( + X0 69 ) X5 )  ( <= ( + X5 93 ) X0 )  ( <= ( + Y0 80 ) Y5 )  ( <= ( + Y5 94 ) Y0 )  )
( or ( <= ( + X1 19 ) X2 )  ( <= ( + X2 93 ) X1 )  ( <= ( + Y1 29 ) Y2 )  ( <= ( + Y2 6 ) Y1 )  )
( or ( <= ( + X1 19 ) X3 )  ( <= ( + X3 35 ) X1 )  ( <= ( + Y1 29 ) Y3 )  ( <= ( + Y3 27 ) Y1 )  )
( or ( <= ( + X1 19 ) X4 )  ( <= ( + X4 71 ) X1 )  ( <= ( + Y1 29 ) Y4 )  ( <= ( + Y4 7 ) Y1 )  )
( or ( <= ( + X1 19 ) X5 )  ( <= ( + X5 93 ) X1 )  ( <= ( + Y1 29 ) Y5 )  ( <= ( + Y5 94 ) Y1 )  )
( or ( <= ( + X2 93 ) X3 )  ( <= ( + X3 35 ) X2 )  ( <= ( + Y2 6 ) Y3 )  ( <= ( + Y3 27 ) Y2 )  )
( or ( <= ( + X2 93 ) X4 )  ( <= ( + X4 71 ) X2 )  ( <= ( + Y2 6 ) Y4 )  ( <= ( + Y4 7 ) Y2 )  )
( or ( <= ( + X2 93 ) X5 )  ( <= ( + X5 93 ) X2 )  ( <= ( + Y2 6 ) Y5 )  ( <= ( + Y5 94 ) Y2 )  )
( or ( <= ( + X3 35 ) X4 )  ( <= ( + X4 71 ) X3 )  ( <= ( + Y3 27 ) Y4 )  ( <= ( + Y4 7 ) Y3 )  )
( or ( <= ( + X3 35 ) X5 )  ( <= ( + X5 93 ) X3 )  ( <= ( + Y3 27 ) Y5 )  ( <= ( + Y5 94 ) Y3 )  )
( or ( <= ( + X4 71 ) X5 )  ( <= ( + X5 93 ) X4 )  ( <= ( + Y4 7 ) Y5 )  ( <= ( + Y5 94 ) Y4 )  )
( >= X0 0)
( <= ( + X0 69) Z)
( >= Y0 0)
( <= ( + Y0 80 ) 122)
( >= X1 0)
( <= ( + X1 19) Z)
( >= Y1 0)
( <= ( + Y1 29 ) 122)
( >= X2 0)
( <= ( + X2 93) Z)
( >= Y2 0)
( <= ( + Y2 6 ) 122)
( >= X3 0)
( <= ( + X3 35) Z)
( >= Y3 0)
( <= ( + Y3 27 ) 122)
( >= X4 0)
( <= ( + X4 71) Z)
( >= Y4 0)
( <= ( + Y4 7 ) 122)
( >= X5 0)
( <= ( + X5 93) Z)
( >= Y5 0)
( <= ( + Y5 94 ) 122)
) )
)(=> $phi $goal))))